p cnf 388 956
1 -2 0
2 -1 0
2 3 0
4 3 0
5 3 0
-2 -4 -5 -3 0
-6 3 -7 0
6 -3 -7 0
7 -3 -6 0
6 3 7 0
-7 0
2 8 0
5 8 0
-2 -5 -8 0
8 -9 -10 0
9 -8 -10 0
10 -8 -9 0
9 8 10 0
-10 0
11 12 0
13 12 0
14 12 0
-11 -13 -14 -12 0
-15 12 -16 0
15 -12 -16 0
16 -12 -15 0
15 12 16 0
-16 0
12 -17 -18 0
17 -12 -18 0
18 -12 -17 0
17 12 18 0
-18 0
12 -19 -20 0
19 -12 -20 0
20 -12 -19 0
19 12 20 0
-20 0
11 21 0
13 21 0
14 21 0
22 21 0
-11 -13 -14 -22 -21 0
-23 21 -24 0
23 -21 -24 0
24 -21 -23 0
23 21 24 0
-24 0
25 26 0
27 26 0
28 26 0
29 26 0
-30 0
-31 26 -32 0
31 -26 -32 0
32 -26 -31 0
31 26 32 0
-32 0
27 33 0
28 33 0
29 33 0
-27 -28 -29 -33 0
33 -34 -35 0
34 -33 -35 0
35 -33 -34 0
34 33 35 0
-35 0
28 36 0
29 36 0
-28 -29 -36 0
-37 36 -38 0
37 -36 -38 0
38 -36 -37 0
37 36 38 0
-38 0
29 39 0
28 39 0
-28 -29 -39 0
-40 39 -41 0
40 -39 -41 0
41 -39 -40 0
40 39 41 0
-41 0
42 43 0
44 43 0
45 43 0
46 43 0
47 43 0
48 43 0
49 43 0
50 43 0
-51 0
-52 43 -53 0
52 -43 -53 0
53 -43 -52 0
52 43 53 0
-53 0
44 54 0
45 54 0
46 54 0
47 54 0
48 54 0
49 54 0
50 54 0
-55 0
54 -56 -57 0
56 -54 -57 0
57 -54 -56 0
56 54 57 0
-57 0
45 58 0
46 58 0
47 58 0
48 58 0
49 58 0
50 58 0
-59 0
58 -60 -61 0
60 -58 -61 0
61 -58 -60 0
60 58 61 0
-61 0
46 62 0
47 62 0
48 62 0
49 62 0
50 62 0
-63 0
62 -64 -65 0
64 -62 -65 0
65 -62 -64 0
64 62 65 0
-65 0
47 66 0
48 66 0
49 66 0
50 66 0
-67 0
66 -68 -69 0
68 -66 -69 0
69 -66 -68 0
68 66 69 0
-69 0
66 -70 -71 0
70 -66 -71 0
71 -66 -70 0
70 66 71 0
-71 0
66 -72 -73 0
72 -66 -73 0
73 -66 -72 0
72 66 73 0
-73 0
66 -74 -75 0
74 -66 -75 0
75 -66 -74 0
74 66 75 0
-75 0
47 76 0
48 76 0
49 76 0
50 76 0
77 76 0
78 76 0
-79 0
-80 76 -81 0
80 -76 -81 0
81 -76 -80 0
80 76 81 0
-81 0
47 82 0
48 82 0
49 82 0
50 82 0
78 82 0
-83 0
82 -84 -85 0
84 -82 -85 0
85 -82 -84 0
84 82 85 0
-85 0
86 87 0
88 87 0
89 87 0
90 87 0
91 87 0
92 87 0
93 87 0
-94 0
-95 87 -96 0
95 -87 -96 0
96 -87 -95 0
95 87 96 0
-96 0
88 97 0
89 97 0
90 97 0
91 97 0
92 97 0
93 97 0
-98 0
97 -99 -100 0
99 -97 -100 0
100 -97 -99 0
99 97 100 0
-100 0
89 101 0
90 101 0
91 101 0
92 101 0
93 101 0
-102 0
101 -103 -104 0
103 -101 -104 0
104 -101 -103 0
103 101 104 0
-104 0
90 105 0
91 105 0
92 105 0
93 105 0
-106 0
105 -107 -108 0
107 -105 -108 0
108 -105 -107 0
107 105 108 0
-108 0
105 -109 -110 0
109 -105 -110 0
110 -105 -109 0
109 105 110 0
-110 0
105 -111 -112 0
111 -105 -112 0
112 -105 -111 0
111 105 112 0
-112 0
105 -113 -114 0
113 -105 -114 0
114 -105 -113 0
113 105 114 0
-114 0
115 116 0
117 116 0
-115 -117 -116 0
-118 116 -119 0
118 -116 -119 0
119 -116 -118 0
118 116 119 0
-119 0
120 -117 0
117 -120 0
47 121 0
48 121 0
49 121 0
50 121 0
77 121 0
78 121 0
122 121 0
-123 0
-124 121 -125 0
124 -121 -125 0
125 -121 -124 0
124 121 125 0
-125 0
115 126 0
117 126 0
127 126 0
128 126 0
-129 0
-130 126 -131 0
130 -126 -131 0
131 -126 -130 0
130 126 131 0
-131 0
115 132 0
117 132 0
128 132 0
-115 -117 -128 -132 0
-133 132 -134 0
133 -132 -134 0
134 -132 -133 0
133 132 134 0
-134 0
90 135 0
91 135 0
92 135 0
93 135 0
136 135 0
137 135 0
-138 0
-139 135 -140 0
139 -135 -140 0
140 -135 -139 0
139 135 140 0
-140 0
90 141 0
91 141 0
92 141 0
93 141 0
137 141 0
-142 0
141 -143 -144 0
143 -141 -144 0
144 -141 -143 0
143 141 144 0
-144 0
25 145 0
27 145 0
28 145 0
29 145 0
146 145 0
-147 0
-148 145 -149 0
148 -145 -149 0
149 -145 -148 0
148 145 149 0
-149 0
47 150 0
48 150 0
49 150 0
50 150 0
151 150 0
-152 0
-153 150 -154 0
153 -150 -154 0
154 -150 -153 0
153 150 154 0
-154 0
47 155 0
48 155 0
49 155 0
50 155 0
78 155 0
156 155 0
157 155 0
-158 0
-159 155 -160 0
159 -155 -160 0
160 -155 -159 0
159 155 160 0
-160 0
47 161 0
48 161 0
49 161 0
50 161 0
78 161 0
157 161 0
-162 0
161 -163 -164 0
163 -161 -164 0
164 -161 -163 0
163 161 164 0
-164 0
11 165 0
13 165 0
14 165 0
22 165 0
166 165 0
167 165 0
168 165 0
-169 0
-170 165 -171 0
170 -165 -171 0
171 -165 -170 0
170 165 171 0
-171 0
11 172 0
13 172 0
14 172 0
22 172 0
167 172 0
168 172 0
-173 0
-174 172 -175 0
174 -172 -175 0
175 -172 -174 0
174 172 175 0
-175 0
11 176 0
13 176 0
14 176 0
22 176 0
168 176 0
-177 0
176 -178 -179 0
178 -176 -179 0
179 -176 -178 0
178 176 179 0
-179 0
27 180 0
28 180 0
29 180 0
181 180 0
-182 0
-183 180 -184 0
183 -180 -184 0
184 -180 -183 0
183 180 184 0
-184 0
185 186 0
187 186 0
188 186 0
189 186 0
190 186 0
191 186 0
192 186 0
-193 0
-194 186 -195 0
194 -186 -195 0
195 -186 -194 0
194 186 195 0
-195 0
187 196 0
188 196 0
189 196 0
190 196 0
191 196 0
192 196 0
-197 0
196 -198 -199 0
198 -196 -199 0
199 -196 -198 0
198 196 199 0
-199 0
188 200 0
189 200 0
190 200 0
191 200 0
192 200 0
-201 0
200 -202 -203 0
202 -200 -203 0
203 -200 -202 0
202 200 203 0
-203 0
189 204 0
190 204 0
191 204 0
192 204 0
-205 0
204 -206 -207 0
206 -204 -207 0
207 -204 -206 0
206 204 207 0
-207 0
190 208 0
191 208 0
192 208 0
-190 -191 -192 -208 0
208 -209 -210 0
209 -208 -210 0
210 -208 -209 0
209 208 210 0
-210 0
208 -211 -212 0
211 -208 -212 0
212 -208 -211 0
211 208 212 0
-212 0
208 -213 -214 0
213 -208 -214 0
214 -208 -213 0
213 208 214 0
-214 0
190 215 0
191 215 0
192 215 0
216 215 0
217 215 0
-218 0
-219 215 -220 0
219 -215 -220 0
220 -215 -219 0
219 215 220 0
-220 0
190 221 0
191 221 0
192 221 0
217 221 0
-222 0
221 -223 -224 0
223 -221 -224 0
224 -221 -223 0
223 221 224 0
-224 0
27 225 0
28 225 0
29 225 0
181 225 0
226 225 0
227 225 0
-228 0
-229 225 -230 0
229 -225 -230 0
230 -225 -229 0
229 225 230 0
-230 0
27 231 0
28 231 0
29 231 0
181 231 0
227 231 0
-232 0
231 -233 -234 0
233 -231 -234 0
234 -231 -233 0
233 231 234 0
-234 0
27 235 0
28 235 0
29 235 0
181 235 0
236 235 0
237 235 0
-238 0
-239 235 -240 0
239 -235 -240 0
240 -235 -239 0
239 235 240 0
-240 0
27 241 0
28 241 0
29 241 0
181 241 0
237 241 0
-242 0
-243 241 -244 0
243 -241 -244 0
244 -241 -243 0
243 241 244 0
-244 0
11 245 0
13 245 0
14 245 0
246 245 0
247 245 0
-248 0
-249 245 -250 0
249 -245 -250 0
250 -245 -249 0
249 245 250 0
-250 0
11 251 0
13 251 0
14 251 0
247 251 0
-252 0
251 -253 -254 0
253 -251 -254 0
254 -251 -253 0
253 251 254 0
-254 0
27 255 0
28 255 0
29 255 0
181 255 0
237 255 0
256 255 0
-257 0
-258 255 -259 0
258 -255 -259 0
259 -255 -258 0
258 255 259 0
-259 0
2 260 0
4 260 0
5 260 0
261 260 0
-262 0
-263 260 -264 0
263 -260 -264 0
264 -260 -263 0
263 260 264 0
-264 0
2 265 0
4 265 0
5 265 0
266 265 0
-267 0
-268 265 -269 0
268 -265 -269 0
269 -265 -268 0
268 265 269 0
-269 0
2 270 0
4 270 0
5 270 0
266 270 0
271 270 0
-272 0
-273 270 -274 0
273 -270 -274 0
274 -270 -273 0
273 270 274 0
-274 0
90 275 0
91 275 0
92 275 0
93 275 0
276 275 0
277 275 0
-278 0
-279 275 -280 0
279 -275 -280 0
280 -275 -279 0
279 275 280 0
-280 0
90 281 0
91 281 0
92 281 0
93 281 0
277 281 0
-282 0
281 -283 -284 0
283 -281 -284 0
284 -281 -283 0
283 281 284 0
-284 0
2 285 0
5 285 0
286 285 0
287 285 0
288 285 0
-289 0
-290 285 -291 0
290 -285 -291 0
291 -285 -290 0
290 285 291 0
-291 0
2 292 0
5 292 0
287 292 0
288 292 0
-293 0
292 -294 -295 0
294 -292 -295 0
295 -292 -294 0
294 292 295 0
-295 0
2 296 0
5 296 0
288 296 0
-2 -5 -288 -296 0
296 -297 -298 0
297 -296 -298 0
298 -296 -297 0
297 296 298 0
-298 0
46 299 0
47 299 0
48 299 0
49 299 0
50 299 0
300 299 0
-301 0
-302 299 -303 0
302 -299 -303 0
303 -299 -302 0
302 299 303 0
-303 0
47 304 0
48 304 0
49 304 0
50 304 0
77 304 0
78 304 0
305 304 0
306 304 0
307 304 0
308 304 0
309 304 0
310 304 0
311 304 0
312 304 0
-313 0
-314 304 -315 0
314 -304 -315 0
315 -304 -314 0
314 304 315 0
-315 0
47 316 0
48 316 0
49 316 0
50 316 0
77 316 0
78 316 0
306 316 0
307 316 0
308 316 0
309 316 0
310 316 0
311 316 0
312 316 0
-317 0
316 -318 -319 0
318 -316 -319 0
319 -316 -318 0
318 316 319 0
-319 0
47 320 0
48 320 0
49 320 0
50 320 0
77 320 0
78 320 0
307 320 0
308 320 0
309 320 0
310 320 0
311 320 0
312 320 0
-321 0
320 -322 -323 0
322 -320 -323 0
323 -320 -322 0
322 320 323 0
-323 0
47 324 0
48 324 0
49 324 0
50 324 0
77 324 0
78 324 0
308 324 0
309 324 0
310 324 0
311 324 0
312 324 0
-325 0
324 -326 -327 0
326 -324 -327 0
327 -324 -326 0
326 324 327 0
-327 0
47 328 0
48 328 0
49 328 0
50 328 0
77 328 0
78 328 0
309 328 0
310 328 0
311 328 0
312 328 0
-329 0
328 -330 -331 0
330 -328 -331 0
331 -328 -330 0
330 328 331 0
-331 0
47 332 0
48 332 0
49 332 0
50 332 0
77 332 0
78 332 0
310 332 0
311 332 0
312 332 0
-333 0
332 -334 -335 0
334 -332 -335 0
335 -332 -334 0
334 332 335 0
-335 0
47 336 0
48 336 0
49 336 0
50 336 0
77 336 0
78 336 0
311 336 0
312 336 0
-337 0
336 -338 -339 0
338 -336 -339 0
339 -336 -338 0
338 336 339 0
-339 0
47 340 0
48 340 0
49 340 0
50 340 0
77 340 0
78 340 0
312 340 0
-341 0
340 -342 -343 0
342 -340 -343 0
343 -340 -342 0
342 340 343 0
-343 0
89 344 0
90 344 0
91 344 0
92 344 0
93 344 0
345 344 0
346 344 0
347 344 0
-348 0
-349 344 -350 0
349 -344 -350 0
350 -344 -349 0
349 344 350 0
-350 0
89 351 0
90 351 0
91 351 0
92 351 0
93 351 0
346 351 0
347 351 0
-352 0
351 -353 -354 0
353 -351 -354 0
354 -351 -353 0
353 351 354 0
-354 0
89 355 0
90 355 0
91 355 0
92 355 0
93 355 0
347 355 0
-356 0
355 -357 -358 0
357 -355 -358 0
358 -355 -357 0
357 355 358 0
-358 0
47 359 0
48 359 0
49 359 0
50 359 0
77 359 0
78 359 0
310 359 0
311 359 0
312 359 0
360 359 0
361 359 0
362 359 0
-363 0
-364 359 -365 0
364 -359 -365 0
365 -359 -364 0
364 359 365 0
-365 0
47 366 0
48 366 0
49 366 0
50 366 0
77 366 0
78 366 0
310 366 0
311 366 0
312 366 0
361 366 0
362 366 0
-367 0
366 -368 -369 0
368 -366 -369 0
369 -366 -368 0
368 366 369 0
-369 0
47 370 0
48 370 0
49 370 0
50 370 0
77 370 0
78 370 0
310 370 0
311 370 0
312 370 0
362 370 0
-371 0
370 -372 -373 0
372 -370 -373 0
373 -370 -372 0
372 370 373 0
-373 0
2 374 0
5 374 0
288 374 0
375 374 0
-376 0
-377 374 -378 0
377 -374 -378 0
378 -374 -377 0
377 374 378 0
-378 0
11 379 0
13 379 0
14 379 0
247 379 0
380 379 0
381 379 0
-382 0
-383 379 -384 0
383 -379 -384 0
384 -379 -383 0
383 379 384 0
-384 0
11 385 0
13 385 0
14 385 0
247 385 0
381 385 0
-386 0
385 -387 -388 0
387 -385 -388 0
388 -385 -387 0
387 385 388 0
-388 0
1 0
-6 0
-15 0
-23 0
-31 0
-37 0
-40 0
-52 0
-80 0
-95 0
-118 0
-120 0
-124 0
-130 0
-133 0
-139 0
-148 0
-153 0
-159 0
-170 0
-174 0
-183 0
-194 0
-219 0
-229 0
-239 0
-243 0
-249 0
-258 0
-263 0
-268 0
-273 0
-279 0
-290 0
-302 0
-314 0
-349 0
-364 0
-377 0
-383 0
